data;


param d:= 100;
param r:=5;
param p:=0.100000;
param M:=1000;
param U:=
         1         1        8.168550e-01
         2         1       -1.236605e-01
         3         1        6.316317e-01
         4         1        5.404376e-01
         5         1        4.289283e-01
         6         1       -2.113906e+00
         7         1       -2.348770e-01
         8         1       -2.983185e-01
         9         1        1.517687e+00
        10         1       -6.932965e-01
        11         1        1.934657e-01
        12         1        2.062591e-01
        13         1        1.644989e-02
        14         1        2.502085e-01
        15         1       -1.882526e-01
        16         1       -9.581149e-01
        17         1       -1.586008e-01
        18         1       -7.278513e-01
        19         1       -1.256479e-02
        20         1       -2.302429e-01
        21         1        2.133580e+00
        22         1        1.131117e+00
        23         1       -1.162302e+00
        24         1       -5.406466e-01
        25         1       -5.217611e-01
        26         1        1.350857e+00
        27         1       -1.371561e+00
        28         1        1.887447e-01
        29         1        2.115560e-01
        30         1       -1.604421e+00
        31         1        3.872930e-01
        32         1        1.159584e+00
        33         1        5.334180e-01
        34         1        1.205998e+00
        35         1        1.866305e-01
        36         1        5.298315e-01
        37         1       -1.216805e+00
        38         1       -3.995451e-01
        39         1        1.452077e+00
        40         1        1.769762e-01
        41         1       -1.333474e+00
        42         1       -1.630147e+00
        43         1       -2.127728e+00
        44         1        6.777153e-01
        45         1       -6.169376e-01
        46         1        3.457045e-01
        47         1       -1.721230e+00
        48         1       -9.558878e-01
        49         1        2.827520e-01
        50         1       -9.616164e-01
        51         1       -1.052777e+00
        52         1        3.308046e-01
        53         1        3.720505e-01
        54         1       -4.415476e-01
        55         1       -8.321498e-01
        56         1        1.030879e+00
        57         1       -5.914251e-01
        58         1        1.721248e-01
        59         1        1.909381e-01
        60         1        5.696464e-01
        61         1       -1.292289e+00
        62         1       -3.800621e-01
        63         1        2.103483e-01
        64         1       -7.150726e-01
        65         1       -7.901392e-01
        66         1        1.204183e+00
        67         1        1.256206e+00
        68         1        7.769644e-01
        69         1        4.559574e-01
        70         1       -1.373879e+00
        71         1       -1.637814e+00
        72         1        9.511490e-01
        73         1        4.019960e-01
        74         1       -8.630468e-01
        75         1       -2.008214e+00
        76         1        1.313614e+00
        77         1       -1.628653e+00
        78         1       -1.498788e+00
        79         1        9.652934e-01
        80         1        1.078243e+00
        81         1       -1.571285e+00
        82         1       -1.850393e+00
        83         1        7.309267e-01
        84         1        4.261032e-01
        85         1       -5.834060e-01
        86         1       -6.399846e-01
        87         1       -2.072283e-01
        88         1        8.379621e-01
        89         1       -9.505053e-01
        90         1        7.731173e-01
        91         1        4.351082e-01
        92         1       -9.700628e-01
        93         1       -5.373235e-01
        94         1        1.055023e+00
        95         1       -1.545413e+00
        96         1       -1.191238e-01
        97         1        2.761706e-01
        98         1        5.801056e-01
        99         1        1.412629e-01
       100         1        1.115592e+00
         1         2        1.079114e-01
         2         2        1.201272e+00
         3         2        3.163037e-01
         4         2       -1.176510e+00
         5         2       -2.098446e+00
         6         2       -1.056853e-01
         7         2       -2.108858e-01
         8         2       -4.536446e-01
         9         2        1.472352e+00
        10         2        7.150127e-01
        11         2       -1.435630e-01
        12         2       -6.787059e-01
        13         2        1.252391e+00
        14         2       -3.109262e-01
        15         2       -8.118501e-01
        16         2       -1.395070e-01
        17         2        5.721110e-01
        18         2        7.802881e-01
        19         2       -4.472216e-01
        20         2        6.376103e-02
        21         2        5.432977e-01
        22         2       -3.003845e-02
        23         2        2.336133e+00
        24         2       -6.741872e-01
        25         2       -7.199709e-01
        26         2        1.564437e-01
        27         2       -1.295625e-01
        28         2       -1.265362e+00
        29         2        8.431746e-02
        30         2       -2.902786e+00
        31         2       -1.056081e-01
        32         2       -2.863465e-01
        33         2       -5.421352e-01
        34         2       -5.802262e-01
        35         2        1.600460e-01
        36         2        9.473492e-01
        37         2       -2.425863e-01
        38         2        1.414658e+00
        39         2       -2.769749e-01
        40         2       -3.438047e-01
        41         2       -9.724584e-01
        42         2        1.341435e-01
        43         2        1.117074e-01
        44         2       -3.924647e-01
        45         2        2.078791e+00
        46         2       -7.719831e-02
        47         2       -1.850372e+00
        48         2        1.154525e+00
        49         2       -1.563431e+00
        50         2       -8.188142e-01
        51         2        2.978485e-01
        52         2       -2.137824e+00
        53         2       -8.476976e-01
        54         2       -8.492252e-01
        55         2        1.293897e+00
        56         2       -4.345249e-01
        57         2        8.798816e-01
        58         2        1.720591e+00
        59         2       -2.624768e-01
        60         2       -1.322909e+00
        61         2        9.748878e-01
        62         2       -7.713441e-01
        63         2       -1.359511e-01
        64         2       -4.633889e-01
        65         2       -3.164165e+00
        66         2        1.114642e-01
        67         2        3.934039e-01
        68         2        8.990967e-01
        69         2       -1.965196e-01
        70         2        7.177419e-01
        71         2       -1.403739e+00
        72         2       -1.644178e+00
        73         2       -1.365112e+00
        74         2        1.352100e-01
        75         2       -7.835746e-01
        76         2        4.930386e-01
        77         2        5.745180e-01
        78         2       -6.959427e-01
        79         2        6.556086e-01
        80         2        6.279822e-01
        81         2       -6.370461e-01
        82         2        4.220575e-01
        83         2       -5.802350e-01
        84         2        9.393811e-01
        85         2        6.653841e-01
        86         2       -4.945035e-01
        87         2        1.214043e+00
        88         2       -1.620739e-01
        89         2        7.662100e-01
        90         2        4.267102e-01
        91         2        2.927605e+00
        92         2        9.976219e-01
        93         2        2.502552e-01
        94         2       -9.524762e-03
        95         2        2.062152e+00
        96         2        2.412563e-01
        97         2        3.157895e-01
        98         2       -4.457308e-01
        99         2       -4.119918e-01
       100         2       -5.964148e-01
         1         3        1.255425e-01
         2         3        1.272569e+00
         3         3        1.509459e+00
         4         3       -8.359024e-01
         5         3       -1.571233e+00
         6         3        1.123752e+00
         7         3       -8.126862e-01
         8         3       -2.570324e-01
         9         3       -6.235823e-01
        10         3        6.280755e-01
        11         3        1.209743e-01
        12         3       -1.044089e+00
        13         3       -8.672477e-01
        14         3        1.776545e-01
        15         3       -5.649996e-01
        16         3       -5.237993e-01
        17         3        9.694725e-02
        18         3        1.118262e+00
        19         3        5.011634e-01
        20         3       -1.411013e+00
        21         3        1.843419e+00
        22         3        1.715262e+00
        23         3       -3.169667e-01
        24         3        3.382055e-01
        25         3        2.813918e-01
        26         3        1.302904e+00
        27         3        2.432030e-01
        28         3       -8.088038e-01
        29         3       -2.713229e-01
        30         3       -1.448121e+00
        31         3        7.910433e-01
        32         3       -1.231235e-01
        33         3       -1.015433e+00
        34         3        4.541180e-01
        35         3       -9.620347e-01
        36         3       -9.283919e-01
        37         3       -1.823481e+00
        38         3        1.290655e+00
        39         3        8.167780e-01
        40         3        8.855753e-01
        41         3       -9.491515e-01
        42         3       -1.135227e+00
        43         3        5.831369e-02
        44         3        1.177265e-01
        45         3       -6.953186e-01
        46         3       -1.935396e+00
        47         3        2.970278e-01
        48         3        2.498355e-01
        49         3        4.598034e-01
        50         3        1.512751e+00
        51         3        1.203216e+00
        52         3        8.410298e-01
        53         3       -1.910428e-01
        54         3       -8.130452e-01
        55         3        1.527084e+00
        56         3        4.976606e-01
        57         3        6.274795e-01
        58         3        9.651879e-01
        59         3       -5.758392e-01
        60         3        8.730074e-01
        61         3       -1.109598e+00
        62         3       -1.353640e+00
        63         3        8.433225e-01
        64         3        3.818231e-01
        65         3        2.627267e+00
        66         3        1.999854e-01
        67         3       -1.743405e+00
        68         3       -3.446581e-01
        69         3       -1.106759e-01
        70         3        2.575586e+00
        71         3       -4.887275e-01
        72         3        1.002415e+00
        73         3       -6.916204e-01
        74         3       -2.537049e-01
        75         3        2.325963e+00
        76         3        7.172845e-01
        77         3       -2.777815e-03
        78         3       -2.769771e-01
        79         3       -3.191875e-01
        80         3        9.917017e-01
        81         3       -6.084273e-01
        82         3        5.683097e-01
        83         3        5.140954e-01
        84         3        1.399296e+00
        85         3        1.439941e+00
        86         3        1.777219e-01
        87         3       -1.382539e-01
        88         3       -4.038501e-01
        89         3       -1.081021e+00
        90         3        5.296903e-02
        91         3       -1.055521e+00
        92         3       -3.251124e-01
        93         3        3.361402e-01
        94         3        1.634126e+00
        95         3       -6.230687e-01
        96         3       -9.155081e-01
        97         3       -1.414250e+00
        98         3        1.050628e+00
        99         3       -1.788840e+00
       100         3       -5.508813e-01
         1         4        4.122207e-01
         2         4        3.153848e-01
         3         4        2.103161e-01
         4         4       -1.132887e+00
         5         4       -3.158434e-01
         6         4        6.805831e-01
         7         4        3.063105e-01
         8         4        9.838329e-01
         9         4       -7.999773e-01
        10         4        1.212560e+00
        11         4       -2.025191e+00
        12         4       -7.794142e-01
        13         4       -2.465963e-01
        14         4        1.400878e+00
        15         4        8.958707e-01
        16         4       -7.963868e-01
        17         4        4.358890e-01
        18         4       -2.354725e+00
        19         4        1.398992e-01
        20         4        3.549864e-01
        21         4       -5.205169e-02
        22         4       -5.968593e-01
        23         4        1.971585e-02
        24         4        5.353758e-01
        25         4        7.846681e-01
        26         4       -6.968435e-01
        27         4        4.184978e-01
        28         4       -8.273688e-02
        29         4       -9.509274e-01
        30         4       -3.621476e+00
        31         4       -1.387361e+00
        32         4       -2.404142e-02
        33         4        4.256403e-01
        34         4        1.405417e+00
        35         4        9.564955e-02
        36         4       -3.648213e-01
        37         4       -6.710630e-01
        38         4        1.229162e+00
        39         4        1.990428e+00
        40         4       -3.256479e-01
        41         4       -8.211264e-01
        42         4       -1.049125e+00
        43         4       -8.915733e-01
        44         4        1.318219e+00
        45         4       -1.962429e+00
        46         4       -1.550336e+00
        47         4       -4.026647e-01
        48         4        1.099209e+00
        49         4        3.328958e-01
        50         4       -1.178953e+00
        51         4        8.389137e-01
        52         4        6.654885e-01
        53         4        2.768767e-01
        54         4        3.001939e-01
        55         4        1.945666e+00
        56         4        1.691385e+00
        57         4        1.871264e+00
        58         4       -4.557449e-01
        59         4        2.354983e-01
        60         4       -7.423360e-01
        61         4        8.449369e-01
        62         4       -1.795757e-01
        63         4        3.465719e-02
        64         4        2.690321e-01
        65         4        1.004433e+00
        66         4       -7.510874e-01
        67         4        1.347953e+00
        68         4       -1.578040e-01
        69         4        8.994734e-01
        70         4        1.299765e+00
        71         4        4.985903e-01
        72         4        2.251793e-01
        73         4        4.877299e-01
        74         4       -1.344881e+00
        75         4        1.009062e-01
        76         4        1.179630e-01
        77         4       -6.951866e-01
        78         4       -1.156709e+00
        79         4       -1.269070e+00
        80         4        1.013472e+00
        81         4        2.398547e+00
        82         4        3.788539e-01
        83         4       -9.851932e-01
        84         4       -1.423071e+00
        85         4       -6.824498e-01
        86         4       -1.282143e+00
        87         4       -2.701205e-01
        88         4        7.907748e-02
        89         4       -1.721314e-01
        90         4       -7.038859e-01
        91         4       -1.244620e+00
        92         4        3.172693e-01
        93         4        8.540919e-01
        94         4       -1.020522e+00
        95         4        1.892053e-01
        96         4        2.197779e-01
        97         4       -1.100106e+00
        98         4       -1.699009e+00
        99         4       -1.330708e+00
       100         4       -2.294632e-01
         1         5       -1.498412e-01
         2         5        1.188833e+00
         3         5       -2.231044e+00
         4         5        1.142035e+00
         5         5        1.172211e+00
         6         5       -8.335277e-01
         7         5       -1.041810e+00
         8         5       -1.046051e+00
         9         5       -3.371754e-01
        10         5       -6.028543e-01
        11         5       -7.389742e-01
        12         5        3.224769e-01
        13         5       -1.431824e+00
        14         5        8.971383e-01
        15         5        1.851647e+00
        16         5       -2.031224e-01
        17         5       -2.996622e-01
        18         5       -1.493880e+00
        19         5       -9.476236e-01
        20         5        6.090184e-01
        21         5        6.500756e-01
        22         5        1.049105e+00
        23         5       -4.500099e-01
        24         5       -8.487173e-02
        25         5        5.529111e-01
        26         5        6.262241e-01
        27         5        2.343118e-01
        28         5        1.419726e+00
        29         5       -1.421849e+00
        30         5       -1.147457e+00
        31         5        7.557528e-01
        32         5       -6.678571e-01
        33         5       -4.089644e-01
        34         5        2.920241e-01
        35         5       -1.483635e-02
        36         5       -2.535293e-01
        37         5        8.543168e-01
        38         5       -8.058307e-01
        39         5        3.348739e-01
        40         5        7.292093e-01
        41         5        2.233551e-01
        42         5        6.957639e-01
        43         5        8.321020e-01
        44         5        1.788136e+00
        45         5       -3.095418e-01
        46         5       -7.752988e-01
        47         5       -5.583453e-01
        48         5        2.523360e-01
        49         5       -5.984744e-01
        50         5       -2.850608e-01
        51         5        8.472704e-01
        52         5        1.742129e+00
        53         5       -5.755690e-02
        54         5       -2.552046e-01
        55         5       -9.999981e-01
        56         5       -8.384035e-01
        57         5        4.577235e-01
        58         5       -1.471577e-01
        59         5       -3.491427e-01
        60         5       -4.160051e-01
        61         5       -4.617322e-01
        62         5       -1.177613e-01
        63         5       -2.630024e+00
        64         5        6.828722e-01
        65         5        5.452552e-01
        66         5        9.466935e-01
        67         5       -8.215296e-01
        68         5       -4.895731e-01
        69         5       -3.346562e-02
        70         5       -7.435909e-01
        71         5       -9.953831e-01
        72         5        1.668786e-01
        73         5        2.343133e+00
        74         5       -2.924270e-01
        75         5       -6.388123e-01
        76         5        4.330598e-01
        77         5       -5.427216e-02
        78         5        4.457204e-01
        79         5        1.405139e+00
        80         5        5.983510e-01
        81         5        8.268010e-01
        82         5        1.446933e+00
        83         5        6.137817e-01
        84         5        2.251805e-01
        85         5       -2.580129e+00
        86         5       -4.917398e-01
        87         5       -1.400373e+00
        88         5        6.200416e-01
        89         5        9.704141e-01
        90         5        1.099483e+00
        91         5       -2.508526e-01
        92         5       -6.133395e-02
        93         5       -4.364228e-01
        94         5       -1.140588e+00
        95         5        4.029280e-01
        96         5       -1.499457e-02
        97         5        4.789201e-01
        98         5        1.454937e+00
        99         5        8.608505e-01
       100         5        6.099142e-01
;

param theta:=
    1       -5.029580e-01
    2        1.752644e+00
    3       -3.796815e-01
    4       -3.053955e-01
    5       -1.177885e+00
;
param X_true:=
    1       -2.187744e-01
    2        1.878016e-01
    3        2.227253e+00
    4       -3.015651e+00
    5       -4.581265e+00
    6        1.225262e+00
    7        1.190674e+00
    8        3.842246e-01
    9        2.695401e+00
   10        1.703176e+00
   11        1.094059e+00
   12       -1.038659e+00
   13        4.277833e+00
   14       -2.222787e+00
   15       -3.568303e+00
   16        9.187303e-01
   17        1.265516e+00
   18        3.787804e+00
   19        1.056842e-01
   20       -6.247639e-02
   21       -1.570624e+00
   22       -2.326252e+00
   23        5.323384e+00
   24       -1.101630e+00
   25       -1.997168e+00
   26       -1.424730e+00
   27       -3.337884e-02
   28       -3.652578e+00
   29        2.109575e+00
   30       -1.273214e+00
   31       -1.146726e+00
   32       -2.443368e-01
   33       -4.811908e-01
   34       -2.569095e+00
   35        5.401675e-01
   36        2.156419e+00
   37        7.782937e-02
   38        2.764103e+00
   39       -2.528198e+00
   40       -1.787289e+00
   41       -6.856344e-01
   42        9.868944e-01
   43        5.359626e-01
   44       -3.582208e+00
   45        5.181594e+00
   46        1.812337e+00
   47       -1.709473e+00
   48        1.776468e+00
   49       -2.453660e+00
   50       -8.299845e-01
   51       -6.595019e-01
   52       -6.487813e+00
   53       -1.617064e+00
   54       -7.486870e-01
   55        2.690157e+00
   56       -9.980073e-01
   57        4.907171e-01
   58        2.875065e+00
   59        1.903139e-03
   60       -2.219849e+00
   61        3.065719e+00
   62       -4.532328e-01
   63        2.423018e+00
   64       -1.483981e+00
   65       -7.094769e+00
   66       -1.371944e+00
   67        1.275626e+00
   68        1.940729e+00
   69       -7.670112e-01
   70        1.449968e+00
   71       -4.307624e-01
   72       -4.005977e+00
   73       -5.241038e+00
   74        1.522544e+00
   75       -5.247737e-01
   76       -6.150313e-01
   77        2.103357e+00
   78       -5.325027e-01
   79       -4.827884e-01
   80       -8.325114e-01
   81       -1.801598e+00
   82       -3.654118e-01
   83       -2.001854e+00
   84        1.070164e+00
   85        4.160404e+00
   86        3.584930e-01
   87        4.016476e+00
   88       -1.306671e+00
   89        1.140933e+00
   90       -7.411872e-01
   91        5.988546e+00
   92        2.335167e+00
   93        8.344532e-01
   94        4.873714e-01
   95        4.095678e+00
   96        7.808948e-01
   97        7.233832e-01
   98       -2.666758e+00
   99       -7.215251e-01
  100       -2.045571e+00
;
param X:=
    1       -2.187744e-01
    2        1.878016e-01
    3        2.227253e+00
    4       -3.015651e+00
    5       -4.581265e+00
    6        1.225262e+00
    7        1.521019e+00
    8        3.842246e-01
    9       -5.188880e-01
   10        1.703176e+00
   11        1.094059e+00
   12       -1.038659e+00
   13        4.277833e+00
   14       -2.222787e+00
   15       -3.568303e+00
   16        9.187303e-01
   17        1.265516e+00
   18        3.787804e+00
   19        1.056842e-01
   20       -4.628348e-01
   21       -1.503314e+00
   22       -2.326252e+00
   23        5.323384e+00
   24       -1.101630e+00
   25       -1.997168e+00
   26       -1.424730e+00
   27       -3.337884e-02
   28       -3.652578e+00
   29        2.109575e+00
   30       -1.273214e+00
   31       -1.146726e+00
   32       -2.443368e-01
   33       -4.811908e-01
   34       -2.569095e+00
   35        5.401675e-01
   36        2.156419e+00
   37        7.782937e-02
   38        2.764103e+00
   39       -2.528198e+00
   40        2.828630e+00
   41       -6.856344e-01
   42        9.868944e-01
   43        5.359626e-01
   44       -3.582208e+00
   45        5.181594e+00
   46        1.812337e+00
   47       -1.709473e+00
   48        1.776468e+00
   49        3.805004e-01
   50       -8.299845e-01
   51       -6.595019e-01
   52       -6.487813e+00
   53       -1.145507e+00
   54       -7.486870e-01
   55        2.690157e+00
   56       -9.980073e-01
   57        4.907171e-01
   58        2.875065e+00
   59        1.903139e-03
   60       -2.219849e+00
   61        6.702123e-01
   62       -4.532328e-01
   63        2.423018e+00
   64       -1.483981e+00
   65       -7.094769e+00
   66       -1.371944e+00
   67        1.275626e+00
   68        1.940729e+00
   69       -7.670112e-01
   70        1.449968e+00
   71       -1.516338e+00
   72       -4.005977e+00
   73       -5.241038e+00
   74        1.522544e+00
   75       -5.247737e-01
   76       -6.150313e-01
   77        2.103357e+00
   78       -5.325027e-01
   79       -4.827884e-01
   80       -8.325114e-01
   81       -1.801598e+00
   82       -3.654118e-01
   83       -2.001854e+00
   84        1.070164e+00
   85        4.160404e+00
   86        3.584930e-01
   87        4.016476e+00
   88       -1.306671e+00
   89        1.140933e+00
   90       -7.411872e-01
   91        1.030127e+00
   92        2.335167e+00
   93        8.344532e-01
   94        4.873714e-01
   95        4.095678e+00
   96        7.808948e-01
   97        7.233832e-01
   98       -2.666758e+00
   99       -7.215251e-01
  100       -2.045571e+00
;
param outliervec:=
    1    0
    2    0
    3    0
    4    0
    5    0
    6    0
    7    1
    8    0
    9    1
   10    0
   11    0
   12    0
   13    0
   14    0
   15    0
   16    0
   17    0
   18    0
   19    0
   20    1
   21    1
   22    0
   23    0
   24    0
   25    0
   26    0
   27    0
   28    0
   29    0
   30    0
   31    0
   32    0
   33    0
   34    0
   35    0
   36    0
   37    0
   38    0
   39    0
   40    1
   41    0
   42    0
   43    0
   44    0
   45    0
   46    0
   47    0
   48    0
   49    1
   50    0
   51    0
   52    0
   53    1
   54    0
   55    0
   56    0
   57    0
   58    0
   59    0
   60    0
   61    1
   62    0
   63    0
   64    0
   65    0
   66    0
   67    0
   68    0
   69    0
   70    0
   71    1
   72    0
   73    0
   74    0
   75    0
   76    0
   77    0
   78    0
   79    0
   80    0
   81    0
   82    0
   83    0
   84    0
   85    0
   86    0
   87    0
   88    0
   89    0
   90    0
   91    1
   92    0
   93    0
   94    0
   95    0
   96    0
   97    0
   98    0
   99    0
  100    0
;